c *********************************
c * Circuit generated by BenCGen
c *
c * RippleCarryAdder_56_56_56_InOutT
c *
c * Ports with 1 gate(s): 1
c * Ports with 2 gate(s): 281
c * Total gates: 282
c *********************************
p cnf 394 957
1 171 0
-1 -171 0
1 -170 0
171 -170 0
-1 -171 170 0
1 57 -173 0
-1 57 173 0
1 -57 173 0
-1 -57 -173 0
173 170 -113 0
-173 170 113 0
173 -170 113 0
-173 -170 -113 0
170 -174 0
173 -174 0
-170 -173 174 0
57 -175 0
1 -175 0
-57 -1 175 0
-174 172 0
-175 172 0
174 175 -172 0
2 58 -177 0
-2 58 177 0
2 -58 177 0
-2 -58 -177 0
177 172 -114 0
-177 172 114 0
177 -172 114 0
-177 -172 -114 0
172 -178 0
177 -178 0
-172 -177 178 0
58 -179 0
2 -179 0
-58 -2 179 0
-178 176 0
-179 176 0
178 179 -176 0
3 59 -181 0
-3 59 181 0
3 -59 181 0
-3 -59 -181 0
181 176 -115 0
-181 176 115 0
181 -176 115 0
-181 -176 -115 0
176 -182 0
181 -182 0
-176 -181 182 0
59 -183 0
3 -183 0
-59 -3 183 0
-182 180 0
-183 180 0
182 183 -180 0
4 60 -185 0
-4 60 185 0
4 -60 185 0
-4 -60 -185 0
185 180 -116 0
-185 180 116 0
185 -180 116 0
-185 -180 -116 0
180 -186 0
185 -186 0
-180 -185 186 0
60 -187 0
4 -187 0
-60 -4 187 0
-186 184 0
-187 184 0
186 187 -184 0
5 61 -189 0
-5 61 189 0
5 -61 189 0
-5 -61 -189 0
189 184 -117 0
-189 184 117 0
189 -184 117 0
-189 -184 -117 0
184 -190 0
189 -190 0
-184 -189 190 0
61 -191 0
5 -191 0
-61 -5 191 0
-190 188 0
-191 188 0
190 191 -188 0
6 62 -193 0
-6 62 193 0
6 -62 193 0
-6 -62 -193 0
193 188 -118 0
-193 188 118 0
193 -188 118 0
-193 -188 -118 0
188 -194 0
193 -194 0
-188 -193 194 0
62 -195 0
6 -195 0
-62 -6 195 0
-194 192 0
-195 192 0
194 195 -192 0
7 63 -197 0
-7 63 197 0
7 -63 197 0
-7 -63 -197 0
197 192 -119 0
-197 192 119 0
197 -192 119 0
-197 -192 -119 0
192 -198 0
197 -198 0
-192 -197 198 0
63 -199 0
7 -199 0
-63 -7 199 0
-198 196 0
-199 196 0
198 199 -196 0
8 64 -201 0
-8 64 201 0
8 -64 201 0
-8 -64 -201 0
201 196 -120 0
-201 196 120 0
201 -196 120 0
-201 -196 -120 0
196 -202 0
201 -202 0
-196 -201 202 0
64 -203 0
8 -203 0
-64 -8 203 0
-202 200 0
-203 200 0
202 203 -200 0
9 65 -205 0
-9 65 205 0
9 -65 205 0
-9 -65 -205 0
205 200 -121 0
-205 200 121 0
205 -200 121 0
-205 -200 -121 0
200 -206 0
205 -206 0
-200 -205 206 0
65 -207 0
9 -207 0
-65 -9 207 0
-206 204 0
-207 204 0
206 207 -204 0
10 66 -209 0
-10 66 209 0
10 -66 209 0
-10 -66 -209 0
209 204 -122 0
-209 204 122 0
209 -204 122 0
-209 -204 -122 0
204 -210 0
209 -210 0
-204 -209 210 0
66 -211 0
10 -211 0
-66 -10 211 0
-210 208 0
-211 208 0
210 211 -208 0
11 67 -213 0
-11 67 213 0
11 -67 213 0
-11 -67 -213 0
213 208 -123 0
-213 208 123 0
213 -208 123 0
-213 -208 -123 0
208 -214 0
213 -214 0
-208 -213 214 0
67 -215 0
11 -215 0
-67 -11 215 0
-214 212 0
-215 212 0
214 215 -212 0
12 68 -217 0
-12 68 217 0
12 -68 217 0
-12 -68 -217 0
217 212 -124 0
-217 212 124 0
217 -212 124 0
-217 -212 -124 0
212 -218 0
217 -218 0
-212 -217 218 0
68 -219 0
12 -219 0
-68 -12 219 0
-218 216 0
-219 216 0
218 219 -216 0
13 69 -221 0
-13 69 221 0
13 -69 221 0
-13 -69 -221 0
221 216 -125 0
-221 216 125 0
221 -216 125 0
-221 -216 -125 0
216 -222 0
221 -222 0
-216 -221 222 0
69 -223 0
13 -223 0
-69 -13 223 0
-222 220 0
-223 220 0
222 223 -220 0
14 70 -225 0
-14 70 225 0
14 -70 225 0
-14 -70 -225 0
225 220 -126 0
-225 220 126 0
225 -220 126 0
-225 -220 -126 0
220 -226 0
225 -226 0
-220 -225 226 0
70 -227 0
14 -227 0
-70 -14 227 0
-226 224 0
-227 224 0
226 227 -224 0
15 71 -229 0
-15 71 229 0
15 -71 229 0
-15 -71 -229 0
229 224 -127 0
-229 224 127 0
229 -224 127 0
-229 -224 -127 0
224 -230 0
229 -230 0
-224 -229 230 0
71 -231 0
15 -231 0
-71 -15 231 0
-230 228 0
-231 228 0
230 231 -228 0
16 72 -233 0
-16 72 233 0
16 -72 233 0
-16 -72 -233 0
233 228 -128 0
-233 228 128 0
233 -228 128 0
-233 -228 -128 0
228 -234 0
233 -234 0
-228 -233 234 0
72 -235 0
16 -235 0
-72 -16 235 0
-234 232 0
-235 232 0
234 235 -232 0
17 73 -237 0
-17 73 237 0
17 -73 237 0
-17 -73 -237 0
237 232 -129 0
-237 232 129 0
237 -232 129 0
-237 -232 -129 0
232 -238 0
237 -238 0
-232 -237 238 0
73 -239 0
17 -239 0
-73 -17 239 0
-238 236 0
-239 236 0
238 239 -236 0
18 74 -241 0
-18 74 241 0
18 -74 241 0
-18 -74 -241 0
241 236 -130 0
-241 236 130 0
241 -236 130 0
-241 -236 -130 0
236 -242 0
241 -242 0
-236 -241 242 0
74 -243 0
18 -243 0
-74 -18 243 0
-242 240 0
-243 240 0
242 243 -240 0
19 75 -245 0
-19 75 245 0
19 -75 245 0
-19 -75 -245 0
245 240 -131 0
-245 240 131 0
245 -240 131 0
-245 -240 -131 0
240 -246 0
245 -246 0
-240 -245 246 0
75 -247 0
19 -247 0
-75 -19 247 0
-246 244 0
-247 244 0
246 247 -244 0
20 76 -249 0
-20 76 249 0
20 -76 249 0
-20 -76 -249 0
249 244 -132 0
-249 244 132 0
249 -244 132 0
-249 -244 -132 0
244 -250 0
249 -250 0
-244 -249 250 0
76 -251 0
20 -251 0
-76 -20 251 0
-250 248 0
-251 248 0
250 251 -248 0
21 77 -253 0
-21 77 253 0
21 -77 253 0
-21 -77 -253 0
253 248 -133 0
-253 248 133 0
253 -248 133 0
-253 -248 -133 0
248 -254 0
253 -254 0
-248 -253 254 0
77 -255 0
21 -255 0
-77 -21 255 0
-254 252 0
-255 252 0
254 255 -252 0
22 78 -257 0
-22 78 257 0
22 -78 257 0
-22 -78 -257 0
257 252 -134 0
-257 252 134 0
257 -252 134 0
-257 -252 -134 0
252 -258 0
257 -258 0
-252 -257 258 0
78 -259 0
22 -259 0
-78 -22 259 0
-258 256 0
-259 256 0
258 259 -256 0
23 79 -261 0
-23 79 261 0
23 -79 261 0
-23 -79 -261 0
261 256 -135 0
-261 256 135 0
261 -256 135 0
-261 -256 -135 0
256 -262 0
261 -262 0
-256 -261 262 0
79 -263 0
23 -263 0
-79 -23 263 0
-262 260 0
-263 260 0
262 263 -260 0
24 80 -265 0
-24 80 265 0
24 -80 265 0
-24 -80 -265 0
265 260 -136 0
-265 260 136 0
265 -260 136 0
-265 -260 -136 0
260 -266 0
265 -266 0
-260 -265 266 0
80 -267 0
24 -267 0
-80 -24 267 0
-266 264 0
-267 264 0
266 267 -264 0
25 81 -269 0
-25 81 269 0
25 -81 269 0
-25 -81 -269 0
269 264 -137 0
-269 264 137 0
269 -264 137 0
-269 -264 -137 0
264 -270 0
269 -270 0
-264 -269 270 0
81 -271 0
25 -271 0
-81 -25 271 0
-270 268 0
-271 268 0
270 271 -268 0
26 82 -273 0
-26 82 273 0
26 -82 273 0
-26 -82 -273 0
273 268 -138 0
-273 268 138 0
273 -268 138 0
-273 -268 -138 0
268 -274 0
273 -274 0
-268 -273 274 0
82 -275 0
26 -275 0
-82 -26 275 0
-274 272 0
-275 272 0
274 275 -272 0
27 83 -277 0
-27 83 277 0
27 -83 277 0
-27 -83 -277 0
277 272 -139 0
-277 272 139 0
277 -272 139 0
-277 -272 -139 0
272 -278 0
277 -278 0
-272 -277 278 0
83 -279 0
27 -279 0
-83 -27 279 0
-278 276 0
-279 276 0
278 279 -276 0
28 84 -281 0
-28 84 281 0
28 -84 281 0
-28 -84 -281 0
281 276 -140 0
-281 276 140 0
281 -276 140 0
-281 -276 -140 0
276 -282 0
281 -282 0
-276 -281 282 0
84 -283 0
28 -283 0
-84 -28 283 0
-282 280 0
-283 280 0
282 283 -280 0
29 85 -285 0
-29 85 285 0
29 -85 285 0
-29 -85 -285 0
285 280 -141 0
-285 280 141 0
285 -280 141 0
-285 -280 -141 0
280 -286 0
285 -286 0
-280 -285 286 0
85 -287 0
29 -287 0
-85 -29 287 0
-286 284 0
-287 284 0
286 287 -284 0
30 86 -289 0
-30 86 289 0
30 -86 289 0
-30 -86 -289 0
289 284 -142 0
-289 284 142 0
289 -284 142 0
-289 -284 -142 0
284 -290 0
289 -290 0
-284 -289 290 0
86 -291 0
30 -291 0
-86 -30 291 0
-290 288 0
-291 288 0
290 291 -288 0
31 87 -293 0
-31 87 293 0
31 -87 293 0
-31 -87 -293 0
293 288 -143 0
-293 288 143 0
293 -288 143 0
-293 -288 -143 0
288 -294 0
293 -294 0
-288 -293 294 0
87 -295 0
31 -295 0
-87 -31 295 0
-294 292 0
-295 292 0
294 295 -292 0
32 88 -297 0
-32 88 297 0
32 -88 297 0
-32 -88 -297 0
297 292 -144 0
-297 292 144 0
297 -292 144 0
-297 -292 -144 0
292 -298 0
297 -298 0
-292 -297 298 0
88 -299 0
32 -299 0
-88 -32 299 0
-298 296 0
-299 296 0
298 299 -296 0
33 89 -301 0
-33 89 301 0
33 -89 301 0
-33 -89 -301 0
301 296 -145 0
-301 296 145 0
301 -296 145 0
-301 -296 -145 0
296 -302 0
301 -302 0
-296 -301 302 0
89 -303 0
33 -303 0
-89 -33 303 0
-302 300 0
-303 300 0
302 303 -300 0
34 90 -305 0
-34 90 305 0
34 -90 305 0
-34 -90 -305 0
305 300 -146 0
-305 300 146 0
305 -300 146 0
-305 -300 -146 0
300 -306 0
305 -306 0
-300 -305 306 0
90 -307 0
34 -307 0
-90 -34 307 0
-306 304 0
-307 304 0
306 307 -304 0
35 91 -309 0
-35 91 309 0
35 -91 309 0
-35 -91 -309 0
309 304 -147 0
-309 304 147 0
309 -304 147 0
-309 -304 -147 0
304 -310 0
309 -310 0
-304 -309 310 0
91 -311 0
35 -311 0
-91 -35 311 0
-310 308 0
-311 308 0
310 311 -308 0
36 92 -313 0
-36 92 313 0
36 -92 313 0
-36 -92 -313 0
313 308 -148 0
-313 308 148 0
313 -308 148 0
-313 -308 -148 0
308 -314 0
313 -314 0
-308 -313 314 0
92 -315 0
36 -315 0
-92 -36 315 0
-314 312 0
-315 312 0
314 315 -312 0
37 93 -317 0
-37 93 317 0
37 -93 317 0
-37 -93 -317 0
317 312 -149 0
-317 312 149 0
317 -312 149 0
-317 -312 -149 0
312 -318 0
317 -318 0
-312 -317 318 0
93 -319 0
37 -319 0
-93 -37 319 0
-318 316 0
-319 316 0
318 319 -316 0
38 94 -321 0
-38 94 321 0
38 -94 321 0
-38 -94 -321 0
321 316 -150 0
-321 316 150 0
321 -316 150 0
-321 -316 -150 0
316 -322 0
321 -322 0
-316 -321 322 0
94 -323 0
38 -323 0
-94 -38 323 0
-322 320 0
-323 320 0
322 323 -320 0
39 95 -325 0
-39 95 325 0
39 -95 325 0
-39 -95 -325 0
325 320 -151 0
-325 320 151 0
325 -320 151 0
-325 -320 -151 0
320 -326 0
325 -326 0
-320 -325 326 0
95 -327 0
39 -327 0
-95 -39 327 0
-326 324 0
-327 324 0
326 327 -324 0
40 96 -329 0
-40 96 329 0
40 -96 329 0
-40 -96 -329 0
329 324 -152 0
-329 324 152 0
329 -324 152 0
-329 -324 -152 0
324 -330 0
329 -330 0
-324 -329 330 0
96 -331 0
40 -331 0
-96 -40 331 0
-330 328 0
-331 328 0
330 331 -328 0
41 97 -333 0
-41 97 333 0
41 -97 333 0
-41 -97 -333 0
333 328 -153 0
-333 328 153 0
333 -328 153 0
-333 -328 -153 0
328 -334 0
333 -334 0
-328 -333 334 0
97 -335 0
41 -335 0
-97 -41 335 0
-334 332 0
-335 332 0
334 335 -332 0
42 98 -337 0
-42 98 337 0
42 -98 337 0
-42 -98 -337 0
337 332 -154 0
-337 332 154 0
337 -332 154 0
-337 -332 -154 0
332 -338 0
337 -338 0
-332 -337 338 0
98 -339 0
42 -339 0
-98 -42 339 0
-338 336 0
-339 336 0
338 339 -336 0
43 99 -341 0
-43 99 341 0
43 -99 341 0
-43 -99 -341 0
341 336 -155 0
-341 336 155 0
341 -336 155 0
-341 -336 -155 0
336 -342 0
341 -342 0
-336 -341 342 0
99 -343 0
43 -343 0
-99 -43 343 0
-342 340 0
-343 340 0
342 343 -340 0
44 100 -345 0
-44 100 345 0
44 -100 345 0
-44 -100 -345 0
345 340 -156 0
-345 340 156 0
345 -340 156 0
-345 -340 -156 0
340 -346 0
345 -346 0
-340 -345 346 0
100 -347 0
44 -347 0
-100 -44 347 0
-346 344 0
-347 344 0
346 347 -344 0
45 101 -349 0
-45 101 349 0
45 -101 349 0
-45 -101 -349 0
349 344 -157 0
-349 344 157 0
349 -344 157 0
-349 -344 -157 0
344 -350 0
349 -350 0
-344 -349 350 0
101 -351 0
45 -351 0
-101 -45 351 0
-350 348 0
-351 348 0
350 351 -348 0
46 102 -353 0
-46 102 353 0
46 -102 353 0
-46 -102 -353 0
353 348 -158 0
-353 348 158 0
353 -348 158 0
-353 -348 -158 0
348 -354 0
353 -354 0
-348 -353 354 0
102 -355 0
46 -355 0
-102 -46 355 0
-354 352 0
-355 352 0
354 355 -352 0
47 103 -357 0
-47 103 357 0
47 -103 357 0
-47 -103 -357 0
357 352 -159 0
-357 352 159 0
357 -352 159 0
-357 -352 -159 0
352 -358 0
357 -358 0
-352 -357 358 0
103 -359 0
47 -359 0
-103 -47 359 0
-358 356 0
-359 356 0
358 359 -356 0
48 104 -361 0
-48 104 361 0
48 -104 361 0
-48 -104 -361 0
361 356 -160 0
-361 356 160 0
361 -356 160 0
-361 -356 -160 0
356 -362 0
361 -362 0
-356 -361 362 0
104 -363 0
48 -363 0
-104 -48 363 0
-362 360 0
-363 360 0
362 363 -360 0
49 105 -365 0
-49 105 365 0
49 -105 365 0
-49 -105 -365 0
365 360 -161 0
-365 360 161 0
365 -360 161 0
-365 -360 -161 0
360 -366 0
365 -366 0
-360 -365 366 0
105 -367 0
49 -367 0
-105 -49 367 0
-366 364 0
-367 364 0
366 367 -364 0
50 106 -369 0
-50 106 369 0
50 -106 369 0
-50 -106 -369 0
369 364 -162 0
-369 364 162 0
369 -364 162 0
-369 -364 -162 0
364 -370 0
369 -370 0
-364 -369 370 0
106 -371 0
50 -371 0
-106 -50 371 0
-370 368 0
-371 368 0
370 371 -368 0
51 107 -373 0
-51 107 373 0
51 -107 373 0
-51 -107 -373 0
373 368 -163 0
-373 368 163 0
373 -368 163 0
-373 -368 -163 0
368 -374 0
373 -374 0
-368 -373 374 0
107 -375 0
51 -375 0
-107 -51 375 0
-374 372 0
-375 372 0
374 375 -372 0
52 108 -377 0
-52 108 377 0
52 -108 377 0
-52 -108 -377 0
377 372 -164 0
-377 372 164 0
377 -372 164 0
-377 -372 -164 0
372 -378 0
377 -378 0
-372 -377 378 0
108 -379 0
52 -379 0
-108 -52 379 0
-378 376 0
-379 376 0
378 379 -376 0
53 109 -381 0
-53 109 381 0
53 -109 381 0
-53 -109 -381 0
381 376 -165 0
-381 376 165 0
381 -376 165 0
-381 -376 -165 0
376 -382 0
381 -382 0
-376 -381 382 0
109 -383 0
53 -383 0
-109 -53 383 0
-382 380 0
-383 380 0
382 383 -380 0
54 110 -385 0
-54 110 385 0
54 -110 385 0
-54 -110 -385 0
385 380 -166 0
-385 380 166 0
385 -380 166 0
-385 -380 -166 0
380 -386 0
385 -386 0
-380 -385 386 0
110 -387 0
54 -387 0
-110 -54 387 0
-386 384 0
-387 384 0
386 387 -384 0
55 111 -389 0
-55 111 389 0
55 -111 389 0
-55 -111 -389 0
389 384 -167 0
-389 384 167 0
389 -384 167 0
-389 -384 -167 0
384 -390 0
389 -390 0
-384 -389 390 0
111 -391 0
55 -391 0
-111 -55 391 0
-390 388 0
-391 388 0
390 391 -388 0
56 112 -392 0
-56 112 392 0
56 -112 392 0
-56 -112 -392 0
392 388 -168 0
-392 388 168 0
392 -388 168 0
-392 -388 -168 0
388 -393 0
392 -393 0
-388 -392 393 0
112 -394 0
56 -394 0
-112 -56 394 0
-393 169 0
-394 169 0
393 394 -169 0
